########################################################

echo		screen
units		lj
atom_style	full
boundary	p p f

################ input  ############################
#log             outputFiles/ljcharged.r${irun}.rho_solute${RHO_SOLUTE}.log
include 	./inputFiles/model.lmp
################ variables  ########################
variable 	cff equal 1.2
variable 	cfs equal 0.5
variable 	css equal 1.0

variable        epsilon_cff equal ${cff}^2
variable        sigma_cff equal 1/(${cff}^(1/6))

variable        epsilon_cfs equal ${cfs}^2
variable        sigma_cfs equal 1/(${cfs}^(1/6))

variable        epsilon_css equal ${css}^2
variable        sigma_css equal 1/(${css}^(1/6))

variable        fluidcharge equal charge(fluid)
variable 	wallcharge equal charge(wall)
variable 	totcharge equal ${fluidcharge}+${wallcharge}
variable 	allcharge equal charge(all)

variable        eqrun1 equal 1e6
variable        eqrun2 equal 1e6
variable        prorun equal 1e6

variable        Nevery equal 20
variable        Nrepeat equal 50000
variable        Nfreq equal 1000000

variable        seed equal 123456*${irun}
################ pair coeffs  ######################
include		./inputFiles/pair.lmp

################  timestep & minimization  #########

timestep        0.001
neighbor        1.0 bin
neigh_modify    every 1 delay 0 check yes

fix             spring wall spring/self 150.0
velocity        all create $t ${seed}

fix             fxwall wall setforce 0.0 0.0 0.0
minimize        1.0e-6 1.0e-6 1000000 1000000
reset_timestep  0
unfix           fxwall

###############  equilibration 1  #####################
fix             fxnvt_wall wall nvt temp $t $t $(100.0*dt)
fix             fxnvt_fluid fluid nvt temp $t $t $(100.0*dt)

compute         wall_temp wall temp
fix_modify      fxnvt_wall temp wall_temp
compute         fluid_temp fluid temp
fix_modify      fxnvt_fluid temp fluid_temp

thermo          10
thermo_style    custom step press temp c_wall_temp c_fluid_temp ke pe etotal ecoul v_allcharge v_totcharge

run             ${eqrun1}
unfix 		fxnvt_fluid

################## equilibration 2 ###############################

fix             fxnvt_bot1 bot nvt temp $t $t $(100.0*dt)
fix             fxnvt_top1 top nvt temp $t $t $(100.0*dt)
fix             fxnve1 fluid nve
compute         bot_temp1 bot temp
fix_modify      fxnvt_bot1 temp bot_temp1
compute         top_temp1 top temp
fix_modify      fxnvt_top1 temp top_temp1



run             ${eqrun2}
reset_timestep  0
unfix           fxnvt_bot1
unfix           fxnvt_top1
unfix           fxnve1

################  Production run  ##############################

fix             fxnvt_bot2 bot nvt temp $t $t $(100.0*dt)
fix             fxnvt_top2 top nvt temp $t $t $(100.0*dt)
fix             fxnve2 fluid nve
compute         bot_temp2 bot temp
fix_modify      fxnvt_bot2 temp bot_temp2
compute         top_temp2 top temp
fix_modify      fxnvt_top2 temp top_temp2

include         ./calcFiles/slab.lmp
include         ./calcFiles/vel.lmp
include         ./calcFiles/force.lmp

compute         cChunk fluid chunk/atom bin/1d z 0.0 0.1 units box bound z -15.9752 15.9752           # binwidth 0.1
fix             fx_vel fluid ave/chunk ${Nevery} ${Nrepeat} ${Nfreq} cChunk vx vy vz file ./outputFiles/r${irun}-bw0.1-solvent-${RHO_SOLVENT}.vel

fix             fx_den fluid ave/chunk ${Nevery} ${Nrepeat} ${Nfreq} cChunk density/mass file ./outputFiles/r${irun}-bw0.1-solvent-${RHO_SOLVENT}.den

run             ${prorun}

